NAME : traveling-santa-2018-prime-paths.28747.tour
COMMENT : Length = 28747
COMMENT : Found by LKH [Keld Helsgaun] Sun Jun 12 20:00:02 2022
TYPE : TOUR
DIMENSION : 100
TOUR_SECTION
1
2
53
85
70
21
28
79
31
27
64
49
75
78
89
43
80
86
37
5
30
69
20
45
9
92
74
84
59
61
39
93
58
44
77
7
67
4
6
54
3
10
25
11
14
90
95
13
18
96
66
17
97
42
76
81
55
87
15
83
82
34
57
56
8
98
100
46
19
23
88
99
71
62
63
33
38
60
41
72
40
73
35
94
65
48
26
29
36
52
24
47
16
32
91
68
51
22
12
50
-1
EOF
